\ Model GLayout_copy
\ LP format - for model browsing. Use MPS format to capture full model detail.
Minimize
 
Subject To
 moveX: - L[0] + moveX[0] = -53.875
Bounds
 L[0] free
 moveX[0] free
Generals
 L[0] moveX[0]
End
